0 0 0 0
0 1 0 0
0 2 0 8
0 3 0 0
0 4 0 9
0 5 0 2
0 6 0 19
0 7 0 17
0 8 0 10
0 9 0 45
0 10 0 9
0 11 0 28
0 12 0 34
0 13 0 34
0 14 0 42
0 15 0 25
0 16 0 10
0 17 0 42
0 18 0 67
0 19 0 34
0 20 0 6
0 21 0 37
0 22 0 46
0 23 0 75
0 24 0 40
0 25 0 57
0 26 0 48
0 27 0 49
0 28 0 108
0 29 0 60
0 30 0 83
0 31 0 58
0 32 0 83
0 33 0 85
0 34 0 45
0 35 0 98
0 36 0 54
0 37 0 90
0 38 0 96
0 39 0 102
0 40 0 67
0 41 0 25
0 42 0 75
0 43 0 88
0 44 0 123
0 45 0 112
0 46 0 62
0 47 0 128
0 48 0 121
0 49 0 92
0 50 0 110
0 51 0 96
0 52 0 112
0 53 0 121
0 54 0 119
0 55 0 119
0 56 0 111
0 57 0 130
0 58 0 130
0 59 0 140
0 60 0 139
0 61 0 146
